NAME          ClpDefau
ROWS
 N  OBJROW
 L  H05_12
 L  H05_14
 L  H05_16
 L  H07_12
 L  H07_16
 L  H09_12
 L  H09_14
 L  H10_15
 L  H13_15
 L  H13_16
COLUMNS
    Q1        OBJROW    1.          
    Q1        H05_12    -0.01019486 
    Q1        H05_14    -0.01030538 
    Q1        H05_16    -0.00782591 
    Q1        H07_12    -0.00991186 
    Q1        H07_16    -0.00755933 
    Q1        H09_12    -0.0073158  
    Q1        H09_14    -0.00742033 
    Q1        H10_15    -0.00628342 
    Q1        H13_15    -0.004792443
    Q1        H13_16    -0.00463179 
    Q2        OBJROW    1.          
    Q2        H05_12    -0.00778914 
    Q2        H05_14    -0.01034214 
    Q2        H05_16    -0.01030538 
    Q2        H07_12    -0.00752346 
    Q2        H07_16    -0.01001962 
    Q2        H09_12    -0.00642288 
    Q2        H09_14    -0.00745515 
    Q2        H10_15    -0.00668315 
    Q2        H13_15    -0.004939546
    Q2        H13_16    -0.004877097
    Q3        OBJROW    1.          
    Q3        H05_12    -0.00797034 
    Q3        H05_14    -0.00929592 
    Q3        H05_16    -0.00804271 
    Q3        H07_12    -0.00894489 
    Q3        H07_16    -0.00901599 
    Q3        H09_12    -0.00759578 
    Q3        H09_14    -0.00890618 
    Q3        H10_15    -0.0073448  
    Q3        H13_15    -0.00534692 
    Q3        H13_16    -0.005196411
    Q4        OBJROW    1.          
    Q4        H05_12    -0.00750478 
    Q4        H05_14    -0.00761145 
    Q4        H05_16    -0.00663787 
    Q4        H07_12    -0.00972287 
    Q4        H07_16    -0.00737915 
    Q4        H09_12    -0.00961431 
    Q4        H09_14    -0.00971859 
    Q4        H10_15    -0.00759432 
    Q4        H13_15    -0.00568859 
    Q4        H13_16    -0.00541578 
    Q5        OBJROW    1.          
    Q5        H05_12    -0.00660235 
    Q5        H05_14    -0.00764697 
    Q5        H05_16    -0.00761145 
    Q5        H07_12    -0.00734398 
    Q5        H07_16    -0.0098285  
    Q5        H09_12    -0.00724018 
    Q5        H09_14    -0.00975333 
    Q5        H10_15    -0.00883312 
    Q5        H13_15    -0.00595584 
    Q5        H13_16    -0.00585875 
    Q6        OBJROW    1.          
    Q6        H05_12    -0.005175293
    Q6        H05_14    -0.00579649 
    Q6        H05_16    -0.00599856 
    Q6        H07_12    -0.00579601 
    Q6        H07_16    -0.00747409 
    Q6        H09_12    -0.00636208 
    Q6        H09_14    -0.0083291  
    Q6        H10_15    -0.01105369 
    Q6        H13_15    -0.00742032 
    Q6        H13_16    -0.00758424 
    Q7        OBJROW    1.          
    Q7        H05_12    -0.004633079
    Q7        H05_14    -0.004945821
    Q7        H05_16    -0.004912985
    Q7        H07_12    -0.00534809 
    Q7        H07_16    -0.00582286 
    Q7        H09_12    -0.00631907 
    Q7        H09_14    -0.0073448  
    Q7        H10_15    -0.00890618 
    Q7        H13_15    -0.01141979 
    Q7        H13_16    -0.01001962 
RHS
    RHS       H05_12     -27.6968161
    RHS       H05_14     -26.2375925
    RHS       H05_16     -24.881336 
    RHS       H07_12     -27.6948751
    RHS       H07_16     -24.8830196
    RHS       H09_12     -27.6896556
    RHS       H09_14     -26.228642 
    RHS       H10_15     -25.5380839
    RHS       H13_15     -25.5432537
    RHS       H13_16     -24.8815809
BOUNDS
 UP BOUND     Q1        20000.      
 UP BOUND     Q2        20000.      
 UP BOUND     Q3        20000.      
 UP BOUND     Q4        20000.      
 UP BOUND     Q5        20000.      
 UP BOUND     Q6        20000.      
 UP BOUND     Q7        20000.      
ENDATA
